************************************************************************
file with basedata            : md362_.bas
initial value random generator: 807
************************************************************************
projects                      :  1
jobs (incl. supersource/sink ):  22
horizon                       :  170
RESOURCES
  - renewable                 :  2   R
  - nonrenewable              :  2   N
  - doubly constrained        :  0   D
************************************************************************
PROJECT INFORMATION:
pronr.  #jobs rel.date duedate tardcost  MPM-Time
    1     20      0       16       15       16
************************************************************************
PRECEDENCE RELATIONS:
jobnr.    #modes  #successors   successors
   1        1          3           2   3   4
   2        3          3           6   7  11
   3        3          3           5   8   9
   4        3          3          10  14  21
   5        3          2          10  12
   6        3          3          12  13  16
   7        3          3          15  17  18
   8        3          1          13
   9        3          1          12
  10        3          2          15  16
  11        3          1          17
  12        3          3          15  18  21
  13        3          2          19  21
  14        3          1          16
  15        3          1          19
  16        3          3          17  18  19
  17        3          1          20
  18        3          1          20
  19        3          1          22
  20        3          1          22
  21        3          1          22
  22        1          0        
************************************************************************
REQUESTS/DURATIONS:
jobnr. mode duration  R 1  R 2  N 1  N 2
------------------------------------------------------------------------
  1      1     0       0    0    0    0
  2      1     2       0    7    6    8
         2     3       6    0    5    7
         3     9       6    0    4    7
  3      1     2       5    0    8    6
         2     6       0    4    6    6
         3     9       0    3    6    6
  4      1     3       0    4    8   10
         2     5       0    3    7    9
         3     7       6    0    6    9
  5      1     3       7    0    8    7
         2    10       5    0    4    4
         3    10       0    4    6    6
  6      1     3       0    8    5    4
         2     9       0    7    3    4
         3     9       1    0    3    3
  7      1     8       4    0   10    9
         2     8       0   10   10   10
         3     9       0   10   10    6
  8      1     1       5    0   10    6
         2     4       0   10    8    6
         3     8       0    7    4    5
  9      1     5      10    0    8    8
         2     6       9    0    6    8
         3     9       9    0    5    8
 10      1     4       6    0    9    7
         2     9       2    0    8    5
         3    10       0    7    8    4
 11      1     7       0    5    8    4
         2     8       8    0    6    3
         3    10       0    2    4    3
 12      1     1       0    7    2    7
         2     2       6    0    2    6
         3    10       0    7    2    4
 13      1     6       0   10    8   10
         2     9       7    0    6    4
         3     9       0    7    4    4
 14      1     4       9    0    7    3
         2     5       0    2    7    2
         3     7       6    0    6    2
 15      1     1       0    9    3    5
         2     2       2    0    3    3
         3     9       0    2    3    3
 16      1     3       3    0    6    9
         2     5       1    0    5    4
         3     7       0    7    5    4
 17      1     3       0    6    5   10
         2     6       0    6    4    8
         3     9       0    4    2    6
 18      1     1       5    0   10    8
         2     5       5    0    9    7
         3     7       0    2    8    7
 19      1     4       0    4    9    4
         2     5       6    0    7    3
         3     9       5    0    5    3
 20      1     1       0    9    5    9
         2     2       9    0    3    5
         3     6       0    8    1    4
 21      1     1       6    0    8    9
         2     6       0    7    6    8
         3     7       0    1    6    7
 22      1     0       0    0    0    0
************************************************************************
RESOURCEAVAILABILITIES:
  R 1  R 2  N 1  N 2
   23   18  120  122
************************************************************************
MAXIMAL LAGS:
from  to  type  delay
    1   22   ES      0
    1    2   ES      0
    2   22   ES      0
    1    3   ES      0
    3   22   ES      0
    1    4   ES      0
    4   22   ES      0
    1    5   ES      0
    5   22   ES      0
    1    6   ES      0
    6   22   ES      0
    1    7   ES      0
    7   22   ES      0
    1    8   ES      0
    8   22   ES      0
    1    9   ES      0
    9   22   ES      0
    1   10   ES      0
   10   22   ES      0
    1   11   ES      0
   11   22   ES      0
    1   12   ES      0
   12   22   ES      0
    1   13   ES      0
   13   22   ES      0
    1   14   ES      0
   14   22   ES      0
    1   15   ES      0
   15   22   ES      0
    1   16   ES      0
   16   22   ES      0
    1   17   ES      0
   17   22   ES      0
    1   18   ES      0
   18   22   ES      0
    1   19   ES      0
   19   22   ES      0
    1   20   ES      0
   20   22   ES      0
    1   21   ES      0
   21   22   ES      0
    1   22   ES      0
    2    6   SS    -10
    2    6   SE     -6
    2    6   ES     12
    2    6   EE    -10
    2    7   SS      4
    2    7   SE     -9
    2    7   ES     -9
    2    7   EE      5
    2   11   SS      8
    2   11   SE     -9
    2   11   ES     -3
    2   11   EE    -12
    3    5   SS     -2
    3    5   SE    -10
    3    5   ES     10
    3    5   EE     10
    3    8   SS     -5
    3    8   SE     -7
    3    8   ES     -2
    3    8   EE      8
    3    9   SS     -9
    3    9   SE      2
    3    9   ES      6
    3    9   EE      9
    4   10   SS    -12
    4   10   SE     -3
    4   10   ES     -3
    4   10   EE      2
    4   14   SS    -11
    4   14   SE      4
    4   14   ES     -1
    4   14   EE      1
    4   21   SS    -12
    4   21   SE      6
    4   21   ES     11
    4   21   EE     -4
    5   10   SS    -11
    5   10   SE      0
    5   10   ES      2
    5   10   EE     -9
    5   12   SS     -3
    5   12   SE      9
    5   12   ES      4
    5   12   EE      2
    6   12   SS      4
    6   12   SE     -6
    6   12   ES    -10
    6   12   EE    -12
    6   13   SS     -6
    6   13   SE     -9
    6   13   ES     -4
    6   13   EE     -1
    6   16   SS     12
    6   16   SE      0
    6   16   ES     -4
    6   16   EE     -2
    7   15   SS      3
    7   15   SE     -8
    7   15   ES     12
    7   15   EE     -8
    7   17   SS      2
    7   17   SE     -2
    7   17   ES      9
    7   17   EE      3
    7   18   SS      7
    7   18   SE     -4
    7   18   ES    -11
    7   18   EE      2
    8   13   SS     11
    8   13   SE     -4
    8   13   ES    -12
    8   13   EE     -5
    9   12   SS     -6
    9   12   SE      2
    9   12   ES     -4
    9   12   EE     -4
   10   15   SS      7
   10   15   SE      8
   10   15   ES      6
   10   15   EE      7
   10   16   SS      4
   10   16   SE      2
   10   16   ES    -12
   10   16   EE      7
   11   17   SS     -5
   11   17   SE     -5
   11   17   ES      7
   11   17   EE     -9
   12   15   SS     10
   12   15   SE     -5
   15   12   SE      0
   12   15   ES      0
   12   15   EE     11
   12   18   SS      7
   12   18   SE     -3
   12   18   ES    -10
   12   18   EE     -7
   12   21   SS      8
   12   21   SE      0
   12   21   ES     -3
   12   21   EE    -10
   13   19   SS    -12
   13   19   SE      0
   13   19   ES    -12
   13   19   EE     -5
   13   21   SS     -7
   13   21   SE      1
   13   21   ES     12
   13   21   EE      2
   14   16   SS     -1
   14   16   SE     -5
   14   16   ES    -10
   14   16   EE     10
   15   19   SS      8
   15   19   SE      5
   15   19   ES    -11
   15   19   EE     -1
   16   17   SS      3
   16   17   SE      0
   16   17   ES     -5
   16   17   EE    -10
   16   18   SS      9
   16   18   SE    -11
   16   18   ES    -10
   16   18   EE    -12
   16   19   SS      5
   16   19   SE      7
   16   19   ES      0
   16   19   EE      8
   17   20   SS     -2
   17   20   SE     -3
   17   20   ES      1
   17   20   EE     -9
   18   20   SS     -7
   18   20   SE     -2
   18   20   ES     -5
   18   20   EE      0
************************************************************************
